200 1267
404 713 387 1205 1158 1232 854 1154 255 1014 734 1034 26 646 532 682 1060 944 48 973 56 1087 1210 204 366 708 1055 223 621 1226 94 596 350 276 293 1078 695 669 218 993 553 586 331 926 1074 1128 425 372 163 718 144 1084 495 1213 863 375 712 1163 889 446 953 455 215 603 78 254 69 1014 386 1236 721 142 328 738 455 574 806 709 60 379 1167 1061 444 458 419 129 183 152 1160 177 214 76 981 756 700 239 721 1107 963 713 620 532 345 793 405 417 490 900 118 558 864 1029 427 843 433 494 383 696 163 827 542 514 362 965 315 640 77 656 1132 1121 149 1089 632 1210 1255 9 1070 1231 673 485 893 228 345 407 664 860 867 1022 450 600 627 875 980 901 120 577 325 1255 8 576 422 427 523 445 597 1233 428 1188 795 504 264 23 924 447 988 265 857 1160 626 432 162 736 61 38 463 107 205 170 462 472 1087 681 1041 179 936 857 662 495 882 198 